3906
5731
8353
8350
8668
1320
3543
8904
5929
8435
9586
4906
8577
9929
5839
3505
8911
8003
2706
1882
8556
2894
8843
3818
1011
5737
4312
6007
2072
9779
5662
8001
2330
7208
5915
420
5875
4485
10186
5356
6854
1232
7364
6808
8549
8303
9208
9154
3946
2785
